results_rootrelaxation/bin018_060_041.srr.sol
solution status: optimal solution found
objective value:                                    0
_var268_                           0.0728109172949677 	(obj:0)
_var2711_                           0.190875204424203 	(obj:0)
_var2718_                          0.0759311961615625 	(obj:0)
_var2719_                           0.126942255521489 	(obj:0)
_var2724_                          0.0410226712267079 	(obj:0)
_var2730_                           0.163763219134595 	(obj:0)
_var2731_                          0.0399678502753528 	(obj:0)
_var2733_                           0.164643620402612 	(obj:0)
_var2746_                           0.120997782299173 	(obj:0)
_var2781_                           0.300670231153087 	(obj:0)
_var2788_                            0.25775804243773 	(obj:0)
_var2797_                          0.0955062648215712 	(obj:0)
_var2813_                          0.0435208804554792 	(obj:0)
_var2814_                           0.172423768103502 	(obj:0)
_var2823_                          0.0655252697158593 	(obj:0)
_var2826_                           0.068762533414725 	(obj:0)
_var2829_                           0.239781911795491 	(obj:0)
_var2835_                          0.0557516908084431 	(obj:0)
_var2838_                          0.0646319288218935 	(obj:0)
_var2849_                           0.109627843259219 	(obj:0)
_var2860_                          0.0693096020524624 	(obj:0)
_var2863_                           0.172252406992566 	(obj:0)
_var2875_                           0.256152096373603 	(obj:0)
_var2876_                          0.0435409409278808 	(obj:0)
_var2883_                          0.0219483801069014 	(obj:0)
_var2885_                            0.11050448996958 	(obj:0)
_var2886_                           0.118068431174889 	(obj:0)
_var2889_                         0.00324877711988832 	(obj:0)
_var2891_                          0.0431083499875851 	(obj:0)
_var2893_                           0.283198100186667 	(obj:0)
_var2894_                          0.0283414950703942 	(obj:0)
_var2901_                           0.391346514132178 	(obj:0)
_var2905_                          0.0787645247581992 	(obj:0)
_var2906_                           0.133908831186212 	(obj:0)
_var2910_                         0.00231479688384377 	(obj:0)
_var2917_                           0.115787521037202 	(obj:0)
_var2920_                          0.0226923685182271 	(obj:0)
_var2921_                          0.0780731922114677 	(obj:0)
_var2923_                           0.108232314883817 	(obj:0)
_var2944_                           0.111146869265004 	(obj:0)
_var2946_                           0.296331371362682 	(obj:0)
_var2947_                          0.0245032126718612 	(obj:0)
_var2951_                          0.0439366811870471 	(obj:0)
_var2953_                          0.0979309993764789 	(obj:0)
_var2955_                           0.041054199063667 	(obj:0)
_var2958_                           0.189230707763458 	(obj:0)
_var2967_                          0.0904198476397868 	(obj:0)
_var2970_                          0.0900902132239779 	(obj:0)
_var2971_                           0.360043353283495 	(obj:0)
_var2979_                          0.0232748760791061 	(obj:0)
_var2983_                           0.204094463528547 	(obj:0)
_var2984_                          0.0729173162579805 	(obj:0)
_var2990_                           0.161643968670936 	(obj:0)
_var2992_                          0.0932989848729683 	(obj:0)
_var2993_                          0.0573615186519726 	(obj:0)
_var2996_                           0.212897647055549 	(obj:0)
_var3004_                           0.354035571174874 	(obj:0)
_var3011_                           0.228080518875238 	(obj:0)
_var3014_                            0.23189692415393 	(obj:0)
_var3015_                          0.0854442999545025 	(obj:0)
_var3016_                           0.251945729474636 	(obj:0)
_var3019_                          0.0638320869788558 	(obj:0)
_var3020_                          0.0524274884457043 	(obj:0)
_var3027_                         0.00247292123140371 	(obj:0)
_var3028_                            0.21722598116817 	(obj:0)
_var3032_                           0.103745079825707 	(obj:0)
_var3034_                           0.133875702899223 	(obj:0)
_var3035_                          0.0357048044658612 	(obj:0)
_var3037_                          0.0919385575102993 	(obj:0)
_var3038_                         0.00564428707731779 	(obj:0)
_var3040_                           0.447272350861084 	(obj:0)
_var3041_                           0.169581805205029 	(obj:0)
_var3047_                          0.0876874794866518 	(obj:0)
_var3048_                          0.0285263974943349 	(obj:0)
_var3049_                           0.295578464927081 	(obj:0)
_var3051_                           0.135317449589876 	(obj:0)
_var3052_                          0.0393507796084386 	(obj:0)
_var3054_                           0.184283988289684 	(obj:0)
_var3060_                          0.0208229638522708 	(obj:0)
_var3061_                           0.131262947610284 	(obj:0)
_var3063_                          0.0177980764237773 	(obj:0)
_var3065_                           0.173375037833854 	(obj:0)
_var3066_                          0.0617651019914907 	(obj:0)
_var3067_                          0.0514017884688449 	(obj:0)
_var3069_                           0.119038348156698 	(obj:0)
_var3070_                          0.0871263940744492 	(obj:0)
_var3071_                           0.103618665218528 	(obj:0)
_var3072_                           0.228531892111508 	(obj:0)
_var3074_                           0.219411269463772 	(obj:0)
_var3075_                          0.0202020696531916 	(obj:0)
_var3076_                          0.0999435901122872 	(obj:0)
_var3077_                          0.0987005762519145 	(obj:0)
_var3079_                           0.155144829150572 	(obj:0)
_var3080_                           0.125022849013228 	(obj:0)
_var3081_                          0.0525166811212325 	(obj:0)
_var3083_                          0.0429676524134636 	(obj:0)
_var3086_                          0.0410631557289099 	(obj:0)
_var3087_                           0.042450390989181 	(obj:0)
_var3090_                          0.0542397935898289 	(obj:0)
_var3091_                          0.0342580379375992 	(obj:0)
_var3093_                           0.312095826727409 	(obj:0)
_var3094_                           0.018963211694134 	(obj:0)
_var3095_                           0.183010514525229 	(obj:0)
_var3097_                           0.124351617063926 	(obj:0)
_var3099_                         0.00355189798011535 	(obj:0)
_var3100_                           0.148783541280839 	(obj:0)
_var3101_                          0.0214518003527322 	(obj:0)
_var3102_                          0.0842495524904408 	(obj:0)
_var3106_                          0.0556707926440878 	(obj:0)
_var3109_                            0.10902793581079 	(obj:0)
_var3111_                           0.187827695516843 	(obj:0)
_var3112_                          0.0550365432306072 	(obj:0)
_var3114_                           0.124260970134255 	(obj:0)
_var3116_                           0.185396748411041 	(obj:0)
_var3117_                           0.103854751372171 	(obj:0)
_var3118_                          0.0897573324583299 	(obj:0)
_var3122_                          0.0361597599610207 	(obj:0)
_var3126_                           0.232918247851809 	(obj:0)
_var3127_                          0.0917007038759347 	(obj:0)
_var3129_                           0.279152806093862 	(obj:0)
_var3130_                          0.0122298093155859 	(obj:0)
_var3131_                           0.108676621569104 	(obj:0)
_var3132_                           0.258224259991981 	(obj:0)
_var3133_                          0.0314515714979382 	(obj:0)
_var3141_                          0.0526198684830391 	(obj:0)
_var3142_                          0.0444167602693371 	(obj:0)
_var3143_                            0.14608705446557 	(obj:0)
_var3144_                           0.059295771751067 	(obj:0)
_var3146_                             0.1407176799717 	(obj:0)
_var3147_                          0.0910839760764474 	(obj:0)
_var3148_                          0.0596891585323134 	(obj:0)
_var3149_                          0.0920849309070488 	(obj:0)
_var3151_                           0.133357895562883 	(obj:0)
_var3152_                           0.166876005353737 	(obj:0)
_var3153_                          0.0386727519889581 	(obj:0)
_var3156_                           0.100257176167233 	(obj:0)
_var3159_                           0.135514190193072 	(obj:0)
_var3160_                         0.00584319742291088 	(obj:0)
_var3162_                           0.133397817610679 	(obj:0)
_var3163_                          0.0423514489814982 	(obj:0)
_var3164_                          0.0308467976434591 	(obj:0)
_var3167_                          0.0494700512661055 	(obj:0)
_var3169_                         0.00653302510366596 	(obj:0)
_var3170_                           0.114944517885075 	(obj:0)
_var3171_                           0.212577932918079 	(obj:0)
_var3174_                          0.0392407497986558 	(obj:0)
_var3175_                           0.099129956444497 	(obj:0)
_var3181_                         0.00923599139692191 	(obj:0)
_var3183_                          0.0658778235941413 	(obj:0)
_var3187_                          0.0544494767381983 	(obj:0)
_var3189_                           0.050857252079462 	(obj:0)
_var3191_                          0.0183510046235201 	(obj:0)
